; benchmark generated from python API
(set-info :status unknown)
(declare-fun x_days () Int)
(declare-fun y_days () Int)
(assert
 (>= x_days (- 36584)))
(assert
 (<= x_days 36829))
(assert
 (>= y_days (- 36584)))
(assert
 (<= y_days 36829))
(assert
 (>= x_days 7244))
(assert
 (<= x_days 7276))
(assert
 (let (($x29 (or (and (= (mod 2000 4) 0) (and (distinct (mod 2000 100) 0) true)) (= (mod 2000 400) 0))))
 (let ((?x36 (ite (= 3 2) (ite $x29 31 31) (ite (= 3 1) (ite $x29 0 0) 0))))
 (let ((?x40 (ite $x29 60 59)))
 (let ((?x41 (ite (= 3 3) ?x40 ?x36)))
 (let ((?x46 (ite (= 3 4) (ite $x29 91 90) ?x41)))
 (let ((?x52 (ite (= 3 5) (ite $x29 121 120) ?x46)))
 (let ((?x58 (ite (= 3 6) (ite $x29 152 151) ?x52)))
 (let ((?x64 (ite (= 3 7) (ite $x29 182 181) ?x58)))
 (let ((?x70 (ite (= 3 8) (ite $x29 213 212) ?x64)))
 (let ((?x76 (ite (= 3 9) (ite $x29 244 243) ?x70)))
 (let ((?x82 (ite (= 3 10) (ite $x29 274 273) ?x76)))
 (let ((?x88 (ite (= 3 11) (ite $x29 305 304) ?x82)))
 (let ((?x16 (- (+ (* 365 (- 2000 1)) (div (- 2000 1) 4)) (div (- 2000 1) 100))))
 (let ((?x95 (+ (+ ?x16 (div (- 2000 1) 400)) (ite (= 3 12) (ite $x29 335 334) ?x88))))
 (let ((?x97 (+ ?x95 (- 1 1))))
 (let ((?x218 (+ x_days ?x97)))
 (let ((?x793 (mod ?x218 146097)))
 (let ((?x469 (div ?x793 36524)))
 (let ((?x729 (ite (<= 4 ?x469) 3 ?x469)))
 (let ((?x615 (- ?x793 (* ?x729 36524))))
 (let ((?x809 (mod ?x615 1461)))
 (let ((?x568 (div ?x809 365)))
 (let ((?x542 (ite (<= 4 ?x568) 3 ?x568)))
 (let ((?x652 (+ (+ (* (div ?x218 146097) 400) (* ?x729 100)) (* (div ?x615 1461) 4))))
 (let ((?x365 (+ (+ ?x652 ?x542) 1)))
 (let (($x113 (or (and (= (mod ?x365 4) 0) (and (distinct (mod ?x365 100) 0) true)) (= (mod ?x365 400) 0))))
 (let ((?x571 (- ?x809 (* ?x542 365))))
 (let ((?x593 (ite $x113 31 31)))
 (let (($x389 (>= ?x571 ?x593)))
 (let ((?x845 (ite $x389 (+ (- ?x571 ?x593) 1) (+ (- ?x571 (ite $x113 0 0)) 1))))
 (let ((?x743 (ite $x113 60 59)))
 (let (($x154 (>= ?x571 ?x743)))
 (let ((?x852 (ite $x113 91 90)))
 (let (($x366 (>= ?x571 ?x852)))
 (let ((?x521 (ite $x366 (+ (- ?x571 ?x852) 1) (ite $x154 (+ (- ?x571 ?x743) 1) ?x845))))
 (let ((?x458 (ite $x113 121 120)))
 (let (($x491 (>= ?x571 ?x458)))
 (let ((?x759 (ite $x113 152 151)))
 (let (($x500 (>= ?x571 ?x759)))
 (let ((?x1194 (ite $x500 (+ (- ?x571 ?x759) 1) (ite $x491 (+ (- ?x571 ?x458) 1) ?x521))))
 (let ((?x801 (ite $x113 182 181)))
 (let (($x457 (>= ?x571 ?x801)))
 (let ((?x296 (ite $x113 213 212)))
 (let (($x587 (>= ?x571 ?x296)))
 (let ((?x264 (ite $x587 (+ (- ?x571 ?x296) 1) (ite $x457 (+ (- ?x571 ?x801) 1) ?x1194))))
 (let ((?x800 (ite $x113 244 243)))
 (let (($x2056 (>= ?x571 ?x800)))
 (let ((?x476 (ite $x113 274 273)))
 (let (($x301 (>= ?x571 ?x476)))
 (let ((?x240 (ite $x301 (+ (- ?x571 ?x476) 1) (ite $x2056 (+ (- ?x571 ?x800) 1) ?x264))))
 (let ((?x2964 (ite $x113 305 304)))
 (let (($x2250 (>= ?x571 ?x2964)))
 (let ((?x854 (ite $x113 335 334)))
 (let (($x541 (>= ?x571 ?x854)))
 (let ((?x2146 (ite $x541 (+ (- ?x571 ?x854) 1) (ite $x2250 (+ (- ?x571 ?x2964) 1) ?x240))))
 (let ((?x549 (ite $x491 5 (ite $x366 4 (ite $x154 3 (ite $x389 2 1))))))
 (let ((?x105 (ite $x2056 9 (ite $x587 8 (ite $x457 7 (ite $x500 6 ?x549))))))
 (let ((?x514 (+ (ite $x541 12 (ite $x2250 11 (ite $x301 10 ?x105))) (+ (* 1 12) 0))))
 (let ((?x1198 (- ?x514 1)))
 (let ((?x792 (+ (mod ?x1198 12) 1)))
 (let ((?x459 (ite (or (= ?x792 4) (= ?x792 6) (= ?x792 9) (= ?x792 11)) 30 31)))
 (let (($x137 (and (= (mod (+ ?x365 (+ 0 (div ?x1198 12))) 4) 0) (and (distinct (mod (+ ?x365 (+ 0 (div ?x1198 12))) 100) 0) true))))
 (let (($x522 (or $x137 (= (mod (+ ?x365 (+ 0 (div ?x1198 12))) 400) 0))))
 (let ((?x531 (ite (= ?x792 2) (ite $x522 29 28) ?x459)))
 (let ((?x815 (ite (> 1 ?x2146) 1 (ite (> ?x2146 ?x531) ?x531 ?x2146))))
 (let ((?x523 (ite (> 1 ?x815) 1 (ite (> ?x815 ?x531) ?x531 ?x815))))
 (let ((?x633 (ite (= 2 ?x792) (ite $x522 31 31) (ite (= 1 ?x792) (ite $x522 0 0) 0))))
 (let ((?x563 (ite (= 4 ?x792) (ite $x522 91 90) (ite (= 3 ?x792) (ite $x522 60 59) ?x633))))
 (let ((?x3001 (ite (= 6 ?x792) (ite $x522 152 151) (ite (= 5 ?x792) (ite $x522 121 120) ?x563))))
 (let ((?x822 (ite (= 8 ?x792) (ite $x522 213 212) (ite (= 7 ?x792) (ite $x522 182 181) ?x3001))))
 (let ((?x140 (ite (= 10 ?x792) (ite $x522 274 273) (ite (= 9 ?x792) (ite $x522 244 243) ?x822))))
 (let ((?x681 (ite (= 12 ?x792) (ite $x522 335 334) (ite (= 11 ?x792) (ite $x522 305 304) ?x140))))
 (let ((?x1493 (+ (* 365 (- (+ ?x365 (+ 0 (div ?x1198 12))) 1)) (div (- (+ ?x365 (+ 0 (div ?x1198 12))) 1) 4))))
 (let ((?x2608 (+ (- ?x1493 (div (- (+ ?x365 (+ 0 (div ?x1198 12))) 1) 100)) (div (- (+ ?x365 (+ 0 (div ?x1198 12))) 1) 400))))
 (let ((?x237 (+ (+ (- (+ (+ ?x2608 ?x681) (- ?x523 1)) ?x97) 0) ?x97)))
 (let ((?x380 (mod ?x237 146097)))
 (let ((?x513 (div ?x380 36524)))
 (let ((?x150 (ite (<= 4 ?x513) 3 ?x513)))
 (let ((?x605 (- ?x380 (* ?x150 36524))))
 (let ((?x844 (mod ?x605 1461)))
 (let ((?x211 (div ?x844 365)))
 (let ((?x3101 (ite (<= 4 ?x211) 3 ?x211)))
 (let ((?x328 (+ (+ (* (div ?x237 146097) 400) (* ?x150 100)) (* (div ?x605 1461) 4))))
 (let ((?x160 (+ (+ ?x328 ?x3101) 1)))
 (let (($x716 (or (and (= (mod ?x160 4) 0) (and (distinct (mod ?x160 100) 0) true)) (= (mod ?x160 400) 0))))
 (let ((?x292 (- ?x844 (* ?x3101 365))))
 (let ((?x695 (ite $x716 31 31)))
 (let (($x404 (>= ?x292 ?x695)))
 (let ((?x473 (ite $x404 (+ (- ?x292 ?x695) 1) (+ (- ?x292 (ite $x716 0 0)) 1))))
 (let ((?x506 (ite $x716 60 59)))
 (let (($x260 (>= ?x292 ?x506)))
 (let ((?x846 (ite $x716 91 90)))
 (let (($x950 (>= ?x292 ?x846)))
 (let ((?x611 (ite $x950 (+ (- ?x292 ?x846) 1) (ite $x260 (+ (- ?x292 ?x506) 1) ?x473))))
 (let ((?x738 (ite $x716 121 120)))
 (let (($x481 (>= ?x292 ?x738)))
 (let ((?x3000 (ite $x716 152 151)))
 (let (($x2912 (>= ?x292 ?x3000)))
 (let ((?x115 (ite $x2912 (+ (- ?x292 ?x3000) 1) (ite $x481 (+ (- ?x292 ?x738) 1) ?x611))))
 (let ((?x464 (ite $x716 182 181)))
 (let (($x2945 (>= ?x292 ?x464)))
 (let ((?x129 (ite $x716 213 212)))
 (let (($x517 (>= ?x292 ?x129)))
 (let ((?x817 (ite $x517 (+ (- ?x292 ?x129) 1) (ite $x2945 (+ (- ?x292 ?x464) 1) ?x115))))
 (let ((?x1522 (ite $x716 244 243)))
 (let (($x272 (>= ?x292 ?x1522)))
 (let ((?x604 (ite $x716 274 273)))
 (let (($x2251 (>= ?x292 ?x604)))
 (let ((?x2967 (ite $x2251 (+ (- ?x292 ?x604) 1) (ite $x272 (+ (- ?x292 ?x1522) 1) ?x817))))
 (let ((?x528 (ite $x716 305 304)))
 (let (($x710 (>= ?x292 ?x528)))
 (let ((?x516 (ite $x716 335 334)))
 (let (($x435 (>= ?x292 ?x516)))
 (let ((?x2742 (ite $x435 (+ (- ?x292 ?x516) 1) (ite $x710 (+ (- ?x292 ?x528) 1) ?x2967))))
 (let (($x352 (= 0 0)))
 (let (($x849 (= (mod (ite $x352 (+ ?x365 (+ 0 (div ?x1198 12))) ?x160) 400) 0)))
 (let (($x417 (and (distinct (mod (ite $x352 (+ ?x365 (+ 0 (div ?x1198 12))) ?x160) 100) 0) true)))
 (let (($x106 (= (mod (ite $x352 (+ ?x365 (+ 0 (div ?x1198 12))) ?x160) 4) 0)))
 (let (($x1349 (or (and $x106 $x417) $x849)))
 (let ((?x2989 (ite $x481 5 (ite $x950 4 (ite $x260 3 (ite $x404 2 1))))))
 (let ((?x483 (ite $x272 9 (ite $x517 8 (ite $x2945 7 (ite $x2912 6 ?x2989))))))
 (let ((?x2064 (ite $x352 ?x792 (ite $x435 12 (ite $x710 11 (ite $x2251 10 ?x483))))))
 (let ((?x551 (ite (= 2 ?x2064) (ite $x1349 31 31) (ite (= 1 ?x2064) (ite $x1349 0 0) 0))))
 (let ((?x596 (ite (= 4 ?x2064) (ite $x1349 91 90) (ite (= 3 ?x2064) (ite $x1349 60 59) ?x551))))
 (let ((?x813 (ite (= 6 ?x2064) (ite $x1349 152 151) (ite (= 5 ?x2064) (ite $x1349 121 120) ?x596))))
 (let ((?x808 (ite (= 8 ?x2064) (ite $x1349 213 212) (ite (= 7 ?x2064) (ite $x1349 182 181) ?x813))))
 (let ((?x650 (ite (= 10 ?x2064) (ite $x1349 274 273) (ite (= 9 ?x2064) (ite $x1349 244 243) ?x808))))
 (let ((?x2410 (ite (= 12 ?x2064) (ite $x1349 335 334) (ite (= 11 ?x2064) (ite $x1349 305 304) ?x650))))
 (let ((?x814 (+ ?x365 (+ 0 (div ?x1198 12)))))
 (let ((?x410 (ite $x352 ?x814 ?x160)))
 (let ((?x515 (- ?x410 1)))
 (let ((?x3103 (+ (- (+ (* 365 ?x515) (div ?x515 4)) (div ?x515 100)) (div ?x515 400))))
 (= y_days (- (+ (+ ?x3103 ?x2410) (- (ite $x352 ?x523 ?x2742) 1)) ?x97)))))))))))))))))))))))))))))))))))))))))))))))))))))))))))))))))))))))))))))))))))))))))))))))))))))))))))))))))))))))))))))))))))))))
(assert
 (not (= y_days (+ x_days 365))))
(check-sat)
